<number of tasks>
250

<cycle time>
1000

<order strength>
0.895


<task times>
1 145
2 146
3 67
4 524
5 524
6 489
7 218
8 41
9 452
10 162
11 87
12 424
13 40
14 292
15 183
16 424
17 312
18 112
19 504
20 172
21 359
22 445
23 242
24 194
25 21
26 158
27 314
28 525
29 376
30 222
31 218
32 502
33 257
34 533
35 564
36 337
37 233
38 159
39 57
40 131
41 543
42 437
43 372
44 488
45 497
46 424
47 496
48 367
49 191
50 414
51 64
52 191
53 320
54 158
55 211
56 357
57 218
58 36
59 29
60 229
61 109
62 372
63 216
64 255
65 45
66 91
67 286
68 280
69 153
70 73
71 484
72 492
73 382
74 95
75 36
76 154
77 101
78 193
79 274
80 29
81 456
82 102
83 97
84 115
85 216
86 49
87 270
88 236
89 28
90 47
91 310
92 177
93 260
94 334
95 408
96 99
97 60
98 264
99 148
100 281
101 138
102 219
103 515
104 61
105 38
106 244
107 124
108 430
109 283
110 46
111 472
112 233
113 193
114 386
115 73
116 191
117 281
118 21
119 70
120 134
121 101
122 263
123 90
124 161
125 259
126 476
127 224
128 37
129 347
130 261
131 134
132 259
133 165
134 558
135 175
136 391
137 526
138 158
139 64
140 95
141 466
142 176
143 417
144 158
145 142
146 475
147 287
148 481
149 29
150 161
151 547
152 421
153 218
154 51
155 65
156 318
157 81
158 245
159 202
160 55
161 131
162 77
163 419
164 191
165 290
166 86
167 499
168 251
169 355
170 281
171 279
172 482
173 383
174 59
175 295
176 96
177 84
178 392
179 499
180 49
181 472
182 65
183 504
184 272
185 222
186 161
187 97
188 328
189 52
190 296
191 462
192 232
193 526
194 123
195 281
196 218
197 192
198 123
199 489
200 49
201 525
202 173
203 170
204 46
205 357
206 200
207 441
208 339
209 149
210 90
211 290
212 44
213 114
214 52
215 334
216 28
217 361
218 278
219 81
220 255
221 219
222 485
223 586
224 89
225 73
226 267
227 249
228 195
229 54
230 221
231 116
232 372
233 324
234 294
235 117
236 185
237 527
238 163
239 344
240 231
241 245
242 230
243 108
244 159
245 63
246 121
247 34
248 503
249 206
250 319

<precedence relations>
1,60
2,6
2,8
2,9
3,6
3,7
4,6
5,6
5,7
5,8
5,9
6,10
6,11
6,12
6,13
6,14
6,15
6,16
6,17
7,10
7,11
7,12
7,13
7,14
7,15
7,16
7,17
8,10
8,15
9,10
9,11
9,12
9,13
9,14
9,16
9,17
10,18
10,19
10,20
10,21
10,23
11,18
11,19
11,20
11,21
11,22
12,18
12,19
13,18
13,19
13,20
13,21
13,22
13,23
14,18
14,19
15,18
15,19
15,23
15,26
15,27
16,18
16,27
17,18
17,19
17,20
17,22
17,23
18,24
19,24
20,24
20,25
20,26
21,24
21,25
21,26
21,27
22,24
22,25
22,26
22,27
23,43
24,28
24,29
24,30
24,31
25,28
25,29
25,30
25,31
26,28
26,29
26,30
26,31
27,28
27,29
27,30
27,31
28,32
28,33
28,34
28,35
29,32
29,33
29,34
29,35
30,32
30,33
30,34
30,35
31,32
31,33
31,34
31,35
32,36
32,37
32,38
32,39
33,36
33,37
33,38
33,39
34,36
34,37
34,38
34,39
35,36
35,37
35,38
35,39
36,40
36,41
36,42
36,43
37,40
37,41
37,42
37,43
38,40
38,41
38,42
38,43
39,40
39,41
39,42
39,43
40,44
40,45
41,44
41,45
42,44
42,45
43,44
43,45
44,46
44,47
44,48
44,49
45,46
45,47
45,48
45,49
46,50
46,51
46,52
47,50
47,51
47,52
48,50
48,51
48,52
49,50
49,51
49,52
50,53
50,54
50,55
50,56
50,57
50,58
51,53
51,54
51,55
51,56
51,57
51,58
52,53
52,54
52,55
52,56
52,57
52,58
53,59
53,60
53,61
53,62
54,59
54,60
54,61
54,62
55,59
55,60
55,61
55,62
56,59
56,60
56,61
56,62
57,59
57,60
57,61
57,62
58,59
58,60
58,61
58,62
59,63
59,64
59,65
59,66
59,67
60,63
60,64
60,65
60,74
61,63
61,65
62,64
62,66
62,67
63,68
63,69
63,76
64,68
64,73
65,68
65,69
65,71
66,68
66,69
66,70
66,71
67,68
67,69
67,70
67,71
68,72
68,136
69,72
69,73
69,75
70,72
70,74
70,75
70,76
71,72
71,73
72,153
72,156
72,165
72,179
73,77
73,80
73,81
73,82
74,77
74,78
74,79
74,80
74,81
74,82
75,77
75,78
75,79
75,80
75,81
75,82
76,77
76,78
76,79
76,80
76,81
76,82
77,83
77,84
77,85
78,83
78,84
78,85
79,83
79,84
79,85
80,83
80,84
80,85
81,83
81,84
81,85
82,83
82,84
82,85
83,86
83,87
83,88
83,89
83,90
83,91
83,92
84,86
84,87
84,88
84,89
84,90
84,91
84,92
85,86
85,87
85,88
85,89
85,90
85,91
85,92
86,93
86,94
86,95
87,93
87,94
87,95
88,93
88,94
88,95
89,93
89,94
89,95
90,93
90,94
90,95
91,93
91,94
91,95
92,93
92,94
92,95
93,96
93,97
93,98
93,99
94,96
94,97
94,98
95,96
95,97
96,100
96,101
97,100
97,101
98,100
98,101
99,105
100,102
100,103
100,104
100,105
100,108
101,102
101,103
101,104
101,105
101,106
101,107
101,108
102,109
102,110
102,111
102,112
103,109
103,110
103,111
103,112
104,109
104,110
104,111
104,112
105,109
105,110
105,111
105,112
106,109
106,110
106,111
106,112
107,109
107,110
107,111
107,112
108,109
108,110
108,111
108,112
109,113
109,114
109,115
109,116
110,113
110,114
110,115
110,116
111,113
111,114
111,115
111,116
112,113
112,114
112,115
112,116
113,117
113,118
113,119
114,117
115,117
115,118
115,119
116,117
116,118
116,119
117,120
117,121
117,122
118,120
118,121
118,122
119,122
120,155
120,156
121,123
121,124
121,125
122,123
122,124
122,125
123,126
123,128
123,129
124,126
124,127
124,130
125,144
125,146
126,131
126,133
126,134
127,131
127,132
127,133
127,134
128,131
128,132
129,150
129,167
129,187
130,150
130,192
130,193
131,135
131,136
131,137
132,145
132,151
132,157
132,158
133,135
134,135
134,136
134,137
135,138
135,139
135,140
136,141
136,153
136,156
137,138
137,139
138,144
139,142
139,145
139,151
140,142
140,143
140,146
141,142
141,158
141,189
142,183
142,218
143,147
143,179
144,147
144,149
144,152
145,148
145,150
146,151
147,154
147,156
148,155
149,156
149,161
149,192
150,169
151,153
151,166
152,153
152,154
152,167
153,159
153,161
153,197
154,157
154,158
155,159
155,160
156,157
156,169
156,185
157,209
157,217
158,162
158,163
159,163
159,187
159,216
159,229
159,231
160,162
160,164
161,217
162,169
162,170
162,171
163,207
163,230
164,165
164,166
164,167
164,168
164,169
166,173
166,203
167,174
168,172
169,175
170,172
171,181
172,180
172,190
173,176
173,177
173,201
173,213
174,176
174,177
174,179
175,176
175,177
175,178
176,184
176,214
177,191
177,221
178,181
178,183
179,185
179,192
179,194
180,182
181,190
181,195
181,196
182,186
182,187
182,194
183,245
185,188
185,189
185,195
185,198
186,192
186,195
187,193
187,196
187,227
187,242
188,193
188,196
188,240
189,191
190,194
192,197
194,198
195,197
195,199
196,234
196,235
197,200
197,201
197,202
197,203
198,202
198,208
198,209
199,202
199,203
200,204
200,208
200,212
200,226
201,204
201,206
201,209
201,210
202,204
202,205
202,207
203,205
204,211
205,227
206,212
206,223
207,210
207,213
207,241
208,238
209,218
210,215
210,234
211,217
212,216
212,219
213,214
213,218
214,244
214,249
215,240
216,221
217,221
217,222
218,223
218,224
218,242
219,220
220,236
221,225
221,233
222,228
223,227
224,226
226,247
227,232
227,250
228,229
228,230
228,231
229,233
230,235
230,239
231,235
231,236
232,234
232,237
233,240
234,238
234,239
234,248
235,244
236,237
236,241
236,242
237,243
237,244
239,244
242,245
242,246
243,247
243,248
244,247
245,249
245,250

<end>
